multiobj/solutions/reallike/Ter-rl-6-2-0.80-0.5-1.out
2 2
3 1 4 2 0 5 
7049138 11395386 
1 3 4 2 0 5 
7560584 7554758 
